c Reduced graph for GEOM80 generated by Cyril Grelier
p edge 80 349
e 1 15
e 1 22
e 1 28
e 1 48
e 1 54
e 1 60
e 1 61
e 1 63
e 1 65
e 1 75
e 1 76
e 1 78
e 2 3
e 2 8
e 2 12
e 2 13
e 2 19
e 2 26
e 2 29
e 2 39
e 2 51
e 2 54
e 2 76
e 3 8
e 3 12
e 3 21
e 3 26
e 3 29
e 3 39
e 3 44
e 3 51
e 3 66
e 3 76
e 4 5
e 4 16
e 4 23
e 4 25
e 4 33
e 4 34
e 4 42
e 4 53
e 4 74
e 4 77
e 5 23
e 5 25
e 5 35
e 5 36
e 5 46
e 5 53
e 5 64
e 5 74
e 6 7
e 6 10
e 6 37
e 6 50
e 6 55
e 6 57
e 6 58
e 6 59
e 6 79
e 7 10
e 7 37
e 7 55
e 7 57
e 7 58
e 7 59
e 7 79
e 8 12
e 8 13
e 8 19
e 8 26
e 8 39
e 9 10
e 9 14
e 9 35
e 9 36
e 9 41
e 9 50
e 9 64
e 10 37
e 10 50
e 10 57
e 10 58
e 11 17
e 11 18
e 11 24
e 11 55
e 11 56
e 11 71
e 11 79
e 12 13
e 12 19
e 12 26
e 12 39
e 13 19
e 13 26
e 13 39
e 14 17
e 14 18
e 14 41
e 14 50
e 14 55
e 15 22
e 15 30
e 15 49
e 15 54
e 15 60
e 15 61
e 15 62
e 15 63
e 15 65
e 15 75
e 15 76
e 16 28
e 16 33
e 16 34
e 16 38
e 16 42
e 16 43
e 16 74
e 16 77
e 16 78
e 17 18
e 17 41
e 17 55
e 17 56
e 17 69
e 17 71
e 17 79
e 18 41
e 18 55
e 18 56
e 18 69
e 18 71
e 19 26
e 19 39
e 20 30
e 20 35
e 20 36
e 20 49
e 20 60
e 20 75
e 21 52
e 21 73
e 22 28
e 22 30
e 22 43
e 22 48
e 22 54
e 22 60
e 22 61
e 22 63
e 22 65
e 22 75
e 22 78
e 23 25
e 23 35
e 23 36
e 23 42
e 23 43
e 23 46
e 23 53
e 23 64
e 23 74
e 24 31
e 24 32
e 24 45
e 24 56
e 24 67
e 24 68
e 24 70
e 24 71
e 25 35
e 25 36
e 25 46
e 25 53
e 25 64
e 25 74
e 26 29
e 26 39
e 27 31
e 27 45
e 27 70
e 27 72
e 28 38
e 28 42
e 28 43
e 28 48
e 28 53
e 28 60
e 28 65
e 28 74
e 28 75
e 28 77
e 28 78
e 29 39
e 29 44
e 29 47
e 29 51
e 29 54
e 29 62
e 29 66
e 29 76
e 30 49
e 30 60
e 30 61
e 30 62
e 30 66
e 30 75
e 31 32
e 31 45
e 31 56
e 31 67
e 31 68
e 31 70
e 31 72
e 32 40
e 32 45
e 32 56
e 32 67
e 32 68
e 32 69
e 32 70
e 33 34
e 33 38
e 33 42
e 33 77
e 35 36
e 35 46
e 35 53
e 35 64
e 35 74
e 36 46
e 36 53
e 36 64
e 37 50
e 37 55
e 37 57
e 37 58
e 37 59
e 38 42
e 38 43
e 38 48
e 38 77
e 38 78
e 40 47
e 40 52
e 40 67
e 40 68
e 40 69
e 40 73
e 40 80
e 41 55
e 42 43
e 42 53
e 42 60
e 42 74
e 42 77
e 43 53
e 43 60
e 43 74
e 43 75
e 43 77
e 44 47
e 44 51
e 44 54
e 44 61
e 44 62
e 44 66
e 44 76
e 44 80
e 45 56
e 45 67
e 45 68
e 45 70
e 45 72
e 46 53
e 46 64
e 46 74
e 47 52
e 47 62
e 47 66
e 47 69
e 47 80
e 48 63
e 48 65
e 48 78
e 49 60
e 49 61
e 49 62
e 49 75
e 50 58
e 51 54
e 51 76
e 52 67
e 52 73
e 53 60
e 53 64
e 53 74
e 53 77
e 54 61
e 54 63
e 54 65
e 54 66
e 54 75
e 54 76
e 55 57
e 55 59
e 55 71
e 55 79
e 56 67
e 56 68
e 56 69
e 56 71
e 57 58
e 57 59
e 58 59
e 59 79
e 60 65
e 60 74
e 60 75
e 60 77
e 61 62
e 61 63
e 61 65
e 61 66
e 61 75
e 61 76
e 62 66
e 62 76
e 62 80
e 63 65
e 63 75
e 63 78
e 64 74
e 65 75
e 65 78
e 66 76
e 66 80
e 67 68
e 67 69
e 67 70
e 68 69
e 68 70
e 69 80
e 70 72
e 71 79
e 74 77
e 77 78
